104556
55, 23, 12, 3, 43, 57, 34, 49, 47, 60, 81, 72, 51, 33, 11, 40, 32, 82, 75, 44, 22, 68, 59, 53, 83, 8, 28, 79, 35, 30, 2, 38, 16, 27, 7, 56, 17, 74, 58, 77, 9, 20, 67, 76, 14, 70, 62, 80, 26, 36, 66, 71, 46, 54, 45, 73, 64, 29, 10, 1, 13, 37, 18, 21, 5, 19, 48, 24, 31, 65, 50, 4, 63, 52, 39, 41, 78, 61, 6, 15, 69, 25, 42
